AME : levi30_7
COMMENT : 30: 30x24 -city problem (levikoppenhol)
TYPE : TSP
DIMENSION : 30
EDGE_WEIGHT_TYPE : EUC_2D
NODE_COORD_SECTION
1 17 22
2 9 12
3 3 0
4 11 26
5 7 3
6 23 11
7 24 8
8 13 0
9 18 1
10 10 18
11 15 27
12 17 26
13 14 8
14 1 25
15 20 25
16 6 7
17 18 29
18 1 24
19 10 17
20 15 0
21 18 14
22 8 21
23 0 9
24 13 25
25 24 13
26 11 8
27 14 11
28 7 10
29 20 27
30 7 28
EOF